N = 11;
H = 5;
T = 2;

avail = array3d(1..N, 1..H, 1..T, [8, 7, 3, 10, 8, 0, 2, 9, 8, 0, 10, 6, 7, 3, 0, 8, 8, 10, 10, 5, 7, 2, 4, 4, 0, 6, 8, 3, 3, 7, 6, 4, 0, 10, 8, 8, 7, 2, 10, 6, 4, 0, 4, 5, 9, 8, 10, 10, 7, 1, 7, 9, 3, 10, 7, 10, 2, 4, 0, 6, 5, 4, 6, 5, 7, 4, 3, 0, 7, 2, 8, 2, 10, 1, 6, 1, 3, 0, 9, 1, 4, 7, 9, 1, 7, 0, 5, 8, 6, 7, 2, 8, 6, 5, 9, 10, 10, 2, 1, 6, 4, 1, 1, 1, 8, 3, 6, 2, 4, 9]);

r = array2d(1..H, 1..T, [2, 5, 6, 4, 4, 2, 2, 0, 4, 2]);
